c 131_3_checker_6cl.cnf
c
c field = 131
c formula set type = 3_checker_6cl
c
p cnf 6 58
254 
256 
258 
-253 
-250 
-262 
255 
257 
259 
-252 
-251 
-263 
254 
256 
258 
-263 
-252 
-264 
255 
257 
259 
-262 
-253 
-265 
256 
258 
262 
-255 
-252 
-264 
257 
259 
263 
-254 
-253 
-265 
256 
258 
262 
-265 
-254 
-266 
257 
259 
263 
-264 
-255 
-267 
258 
262 
264 
-257 
-254 
-266 
259 
263 
265 
-256 
-255 
-267 
258 
262 
264 
-267 
-256 
-268 
259 
263 
265 
-266 
-257 
-269 
262 
264 
266 
-259 
-256 
-268 
263 
265 
267 
-258 
-257 
-269 
170 
200 
230 
-141 
-110 
-290 
171 
201 
231 
-140 
-111 
-291 
170 
200 
230 
-291 
-140 
-320 
171 
201 
231 
-290 
-141 
-321 
200 
230 
290 
-171 
-140 
-320 
201 
231 
291 
-170 
-141 
-321 
200 
230 
290 
-321 
-170 
-350 
201 
231 
291 
-320 
-171 
-351 
230 
290 
320 
-201 
-170 
-350 
231 
291 
321 
-200 
-171 
-351 
230 
290 
320 
-351 
-200 
-380 
231 
291 
321 
-350 
-201 
-381 
290 
320 
350 
-231 
-200 
-380 
291 
321 
351 
-230 
-201 
-381 
290 
320 
350 
-381 
-230 
-410 
291 
321 
351 
-380 
-231 
-411 
164 
196 
228 
-133 
-100 
-292 
165 
197 
229 
-132 
-101 
-293 
164 
196 
228 
-293 
-132 
-324 
165 
197 
229 
-292 
-133 
-325 
196 
228 
292 
-165 
-132 
-324 
197 
229 
293 
-164 
-133 
-325 
196 
228 
292 
-325 
-164 
-356 
197 
229 
293 
-324 
-165 
-357 
228 
292 
324 
-197 
-164 
-356 
229 
293 
325 
-196 
-165 
-357 
228 
292 
324 
-357 
-196 
-388 
229 
293 
325 
-356 
-197 
-389 
292 
324 
356 
-229 
-196 
-388 
293 
325 
357 
-228 
-197 
-389 
176 
204 
232 
-289 
-148 
-316 
177 
205 
233 
-288 
-149 
-317 
204 
232 
288 
-177 
-148 
-316 
205 
233 
289 
-176 
-149 
-317 
204 
232 
288 
-317 
-176 
-344 
205 
233 
289 
-316 
-177 
-345 
232 
288 
316 
-205 
-176 
-344 
233 
289 
317 
-204 
-177 
-345 
232 
288 
316 
-345 
-204 
-372 
233 
289 
317 
-344 
-205 
-373 
288 
316 
344 
-233 
-204 
-372 
289 
317 
345 
-232 
-205 
-373 
288 
316 
344 
-373 
-232 
-400 
289 
317 
345 
-372 
-233 
-401 
